50
    33    23    52    47    38    58    86    59    44    87    38    65    53     7    56    69    81    53    51    63    60     3   100    33    38    73    46    53    79    21    99    90    61    46    33    99    79    87    86    28    43    24    66    14    80    77    43    85    30     7
     5     2     7    10     7     7     7     8     8     6     6     5     2     5     9     2     7     4     5     3     5     3     9     3     3     5     7     3     5     6     6     9     6     5    10     7     9    10     5    10     9     4     5     7     8     1     5     4    10     7
  1667  1881  1704  1623  1648  1741  1462  1415  1380  1466  1647  1412  1454  1520  1630  1593  1664  1681  1664  1378  1434  1781  1819  1874  1612  1612  1707  1814  1612  1666  1613  1446  1763  1414  1673  1762  1546  1670  1909  1810  1381  1781  1408  1756  1429  1448  1639  1845  1728  1742
